
Gurobi 10.0.1 (linux64) logging started Sun Nov 26 15:47:16 2023

Set parameter LogFile to value "ArtificialInstance/ExperimentV2/S3T4K3/AdRo/gurobiDoRo16.txt"
Gurobi Optimizer version 10.0.1 build v10.0.1rc0 (linux64)

CPU model: AMD EPYC 7H12 64-Core Processor, instruction set [SSE2|AVX|AVX2]
Thread count: 128 physical cores, 128 logical processors, using up to 32 threads

Academic license 656792 - for non-commercial use only - registered to b.___@student.vu.nl
Optimize a model with 17363 rows, 16345 columns and 63543 nonzeros
Model fingerprint: 0x96c7e37a
Variable types: 1 continuous, 16344 integer (16344 binary)
Coefficient statistics:
  Matrix range     [1e+00, 4e+01]
  Objective range  [1e+00, 2e+01]
  Bounds range     [1e+00, 1e+00]
  RHS range        [1e+00, 1e+00]
Presolve removed 7719 rows and 7300 columns
Presolve time: 0.19s
Presolved: 9644 rows, 9045 columns, 35134 nonzeros
Variable types: 1 continuous, 9044 integer (9044 binary)
Found heuristic solution: objective 106.0835916

Root relaxation: objective 1.011639e+02, 2858 iterations, 0.15 seconds (0.10 work units)

    Nodes    |    Current Node    |     Objective Bounds      |     Work
 Expl Unexpl |  Obj  Depth IntInf | Incumbent    BestBd   Gap | It/Node Time

     0     0  101.16391    0   36  106.08359  101.16391  4.64%     -    0s
H    0     0                     101.1639100  101.16391  0.00%     -    0s
     0     0  101.16391    0   36  101.16391  101.16391  0.00%     -    0s

Explored 1 nodes (5261 simplex iterations) in 0.52 seconds (0.37 work units)
Thread count was 32 (of 128 available processors)

Solution count 2: 101.164 106.084 

Optimal solution found (tolerance 1.00e-04)
Best objective 1.011639100092e+02, best bound 1.011639100092e+02, gap 0.0000%
